
Gurobi 10.0.0 (win64, Java) logging started Tue Dec 13 18:48:56 2022

Set parameter Username
Academic license - for non-commercial use only - expires 2023-12-01
Set parameter Presolve to value 1
Set parameter TimeLimit to value 300

Gurobi 10.0.0 (win64, Java) logging started Tue Dec 13 18:49:36 2022

Set parameter Username
Academic license - for non-commercial use only - expires 2023-12-01
Set parameter Presolve to value 1
Set parameter TimeLimit to value 300
Gurobi Optimizer version 10.0.0 build v10.0.0rc2 (win64)

CPU model: AMD Ryzen 9 5900X 12-Core Processor, instruction set [SSE2|AVX|AVX2]
Thread count: 12 physical cores, 24 logical processors, using up to 24 threads

Optimize a model with 605 rows, 332 columns and 1284 nonzeros
Model fingerprint: 0xf4897e26
Variable types: 80 continuous, 252 integer (250 binary)
Coefficient statistics:
  Matrix range     [1e-01, 1e+04]
  Objective range  [1e+00, 1e+02]
  Bounds range     [1e+00, 1e+06]
  RHS range        [1e-04, 3e+00]
Presolve removed 553 rows and 295 columns
Presolve time: 0.01s
Presolved: 52 rows, 37 columns, 181 nonzeros
Variable types: 2 continuous, 35 integer (34 binary)
Found heuristic solution: objective -1999793.980

Explored 0 nodes (0 simplex iterations) in 0.01 seconds (0.00 work units)
Thread count was 24 (of 24 available processors)

Solution count 1: -1.99979e+06 

Optimal solution found (tolerance 1.00e-04)
Best objective -1.999793980000e+06, best bound -1.999900000000e+06, gap 0.0053%

Gurobi 10.0.0 (win64, Java) logging started Tue Dec 13 18:54:54 2022

Set parameter Username
Academic license - for non-commercial use only - expires 2023-12-01
Set parameter Presolve to value 1
Set parameter TimeLimit to value 300
Gurobi Optimizer version 10.0.0 build v10.0.0rc2 (win64)

CPU model: AMD Ryzen 9 5900X 12-Core Processor, instruction set [SSE2|AVX|AVX2]
Thread count: 12 physical cores, 24 logical processors, using up to 24 threads

Optimize a model with 605 rows, 332 columns and 1284 nonzeros
Model fingerprint: 0x9c3e9b34
Variable types: 80 continuous, 252 integer (250 binary)
Coefficient statistics:
  Matrix range     [1e-01, 1e+04]
  Objective range  [1e+00, 2e+00]
  Bounds range     [1e+00, 1e+06]
  RHS range        [1e-04, 3e+00]
Presolve removed 553 rows and 295 columns
Presolve time: 0.01s
Presolved: 52 rows, 37 columns, 181 nonzeros
Variable types: 2 continuous, 35 integer (34 binary)
Found heuristic solution: objective -19992.99990

Root relaxation: objective -1.999500e+04, 12 iterations, 0.00 seconds (0.00 work units)

    Nodes    |    Current Node    |     Objective Bounds      |     Work
 Expl Unexpl |  Obj  Depth IntInf | Incumbent    BestBd   Gap | It/Node Time

     0     0 -19995.000    0   11 -19993.000 -19995.000  0.01%     -    0s
H    0     0                    -19993.99980 -19995.000  0.01%     -    0s

Explored 1 nodes (17 simplex iterations) in 0.02 seconds (0.00 work units)
Thread count was 24 (of 24 available processors)

Solution count 2: -19994 -19993 

Optimal solution found (tolerance 1.00e-04)
Best objective -1.999399980000e+04, best bound -1.999499980000e+04, gap 0.0050%

Gurobi 10.0.0 (win64, Java) logging started Tue Dec 13 18:57:56 2022

Set parameter Username
Academic license - for non-commercial use only - expires 2023-12-01
Set parameter Presolve to value 1
Set parameter TimeLimit to value 300
Gurobi Optimizer version 10.0.0 build v10.0.0rc2 (win64)

CPU model: AMD Ryzen 9 5900X 12-Core Processor, instruction set [SSE2|AVX|AVX2]
Thread count: 12 physical cores, 24 logical processors, using up to 24 threads

Optimize a model with 605 rows, 332 columns and 1284 nonzeros
Model fingerprint: 0x27282c27
Variable types: 80 continuous, 252 integer (250 binary)
Coefficient statistics:
  Matrix range     [1e-01, 1e+04]
  Objective range  [1e+00, 2e+00]
  Bounds range     [1e+00, 1e+06]
  RHS range        [1e-04, 3e+00]
Presolve removed 553 rows and 295 columns
Presolve time: 0.01s
Presolved: 52 rows, 37 columns, 181 nonzeros
Variable types: 2 continuous, 35 integer (34 binary)
Found heuristic solution: objective 5.9002000
Found heuristic solution: objective 5.0002000

Root relaxation: objective -1.999500e+04, 24 iterations, 0.00 seconds (0.00 work units)

    Nodes    |    Current Node    |     Objective Bounds      |     Work
 Expl Unexpl |  Obj  Depth IntInf | Incumbent    BestBd   Gap | It/Node Time

     0     0 -19995.000    0   11    5.00020 -19995.000      -     -    0s
H    0     0                    -19992.99980 -19995.000  0.01%     -    0s
H    0     0                    -19992.99990 -19995.000  0.01%     -    0s
H    0     0                    -19993.99980 -19995.000  0.01%     -    0s

Cutting planes:
  Gomory: 2
  Implied bound: 1
  MIR: 1

Explored 1 nodes (35 simplex iterations) in 0.02 seconds (0.00 work units)
Thread count was 24 (of 24 available processors)

Solution count 5: -19994 -19993 -19993 ... 5.9002

Optimal solution found (tolerance 1.00e-04)
Best objective -1.999399980000e+04, best bound -1.999499980000e+04, gap 0.0050%

Gurobi 10.0.0 (win64, Java) logging started Tue Dec 13 19:01:46 2022

Set parameter Username
Academic license - for non-commercial use only - expires 2023-12-01
Set parameter Presolve to value 1
Set parameter TimeLimit to value 300
Gurobi Optimizer version 10.0.0 build v10.0.0rc2 (win64)

CPU model: AMD Ryzen 9 5900X 12-Core Processor, instruction set [SSE2|AVX|AVX2]
Thread count: 12 physical cores, 24 logical processors, using up to 24 threads

Optimize a model with 607 rows, 332 columns and 1286 nonzeros
Model fingerprint: 0xfbd59161
Variable types: 80 continuous, 252 integer (250 binary)
Coefficient statistics:
  Matrix range     [1e-01, 1e+04]
  Objective range  [1e+00, 2e+00]
  Bounds range     [1e+00, 1e+06]
  RHS range        [1e-04, 3e+00]
Presolve removed 559 rows and 297 columns
Presolve time: 0.01s
Presolved: 48 rows, 35 columns, 203 nonzeros
Variable types: 2 continuous, 33 integer (32 binary)
Found heuristic solution: objective 7.0001000
Found heuristic solution: objective 4.0000000

Root relaxation: objective 3.000000e+00, 14 iterations, 0.00 seconds (0.00 work units)

    Nodes    |    Current Node    |     Objective Bounds      |     Work
 Expl Unexpl |  Obj  Depth IntInf | Incumbent    BestBd   Gap | It/Node Time

*    0     0               0       3.0000000    3.00000  0.00%     -    0s

Explored 1 nodes (14 simplex iterations) in 0.01 seconds (0.00 work units)
Thread count was 24 (of 24 available processors)

Solution count 3: 3 4 7.0001 

Optimal solution found (tolerance 1.00e-04)
Best objective 3.000000000000e+00, best bound 3.000000000000e+00, gap 0.0000%

Gurobi 10.0.0 (win64, Java) logging started Tue Dec 13 19:09:25 2022

Set parameter Username
Academic license - for non-commercial use only - expires 2023-12-01
Set parameter Presolve to value 1
Set parameter TimeLimit to value 300
Gurobi Optimizer version 10.0.0 build v10.0.0rc2 (win64)

CPU model: AMD Ryzen 9 5900X 12-Core Processor, instruction set [SSE2|AVX|AVX2]
Thread count: 12 physical cores, 24 logical processors, using up to 24 threads

Optimize a model with 455 rows, 252 columns and 968 nonzeros
Model fingerprint: 0xe93782d7
Variable types: 60 continuous, 192 integer (190 binary)
Coefficient statistics:
  Matrix range     [1e-01, 1e+04]
  Objective range  [1e+00, 2e+00]
  Bounds range     [1e+00, 1e+06]
  RHS range        [1e-04, 3e+00]
Presolve removed 415 rows and 221 columns
Presolve time: 0.01s
Presolved: 40 rows, 31 columns, 171 nonzeros
Variable types: 2 continuous, 29 integer (28 binary)
Found heuristic solution: objective 6.0000000
Found heuristic solution: objective 3.2001000

Root relaxation: objective 3.000000e+00, 10 iterations, 0.00 seconds (0.00 work units)

    Nodes    |    Current Node    |     Objective Bounds      |     Work
 Expl Unexpl |  Obj  Depth IntInf | Incumbent    BestBd   Gap | It/Node Time

*    0     0               0       3.0000000    3.00000  0.00%     -    0s

Explored 1 nodes (10 simplex iterations) in 0.01 seconds (0.00 work units)
Thread count was 24 (of 24 available processors)

Solution count 3: 3 3.2001 6 

Optimal solution found (tolerance 1.00e-04)
Best objective 3.000000000000e+00, best bound 3.000000000000e+00, gap 0.0000%

Gurobi 10.0.0 (win64, Java) logging started Tue Dec 13 19:13:14 2022

Set parameter Username
Academic license - for non-commercial use only - expires 2023-12-01
Set parameter Presolve to value 1
Set parameter TimeLimit to value 300
Gurobi Optimizer version 10.0.0 build v10.0.0rc2 (win64)

CPU model: AMD Ryzen 9 5900X 12-Core Processor, instruction set [SSE2|AVX|AVX2]
Thread count: 12 physical cores, 24 logical processors, using up to 24 threads

Optimize a model with 455 rows, 252 columns and 968 nonzeros
Model fingerprint: 0x691b9fd2
Variable types: 60 continuous, 192 integer (190 binary)
Coefficient statistics:
  Matrix range     [5e-01, 1e+04]
  Objective range  [1e+00, 2e+00]
  Bounds range     [1e+00, 1e+06]
  RHS range        [1e-04, 3e+00]
Presolve removed 415 rows and 221 columns
Presolve time: 0.01s
Presolved: 40 rows, 31 columns, 169 nonzeros
Variable types: 2 continuous, 29 integer (28 binary)
Found heuristic solution: objective 5.5001000
Found heuristic solution: objective 5.0001000

Root relaxation: objective 3.000000e+00, 10 iterations, 0.00 seconds (0.00 work units)

    Nodes    |    Current Node    |     Objective Bounds      |     Work
 Expl Unexpl |  Obj  Depth IntInf | Incumbent    BestBd   Gap | It/Node Time

*    0     0               0       3.0000000    3.00000  0.00%     -    0s

Explored 1 nodes (10 simplex iterations) in 0.01 seconds (0.00 work units)
Thread count was 24 (of 24 available processors)

Solution count 3: 3 5.0001 5.5001 

Optimal solution found (tolerance 1.00e-04)
Best objective 3.000000000000e+00, best bound 3.000000000000e+00, gap 0.0000%

Gurobi 10.0.0 (win64, Java) logging started Tue Dec 13 19:14:35 2022

Set parameter Username
Academic license - for non-commercial use only - expires 2023-12-01
Set parameter Presolve to value 1
Set parameter TimeLimit to value 300
Gurobi Optimizer version 10.0.0 build v10.0.0rc2 (win64)

CPU model: AMD Ryzen 9 5900X 12-Core Processor, instruction set [SSE2|AVX|AVX2]
Thread count: 12 physical cores, 24 logical processors, using up to 24 threads

Optimize a model with 455 rows, 252 columns and 968 nonzeros
Model fingerprint: 0x6d98abad
Variable types: 60 continuous, 192 integer (190 binary)
Coefficient statistics:
  Matrix range     [5e-01, 1e+04]
  Objective range  [1e+00, 1e+02]
  Bounds range     [1e+00, 1e+06]
  RHS range        [1e-04, 3e+00]
Presolve removed 415 rows and 221 columns
Presolve time: 0.00s
Presolved: 40 rows, 31 columns, 169 nonzeros
Variable types: 2 continuous, 29 integer (28 binary)
Found heuristic solution: objective 55.0100000
Found heuristic solution: objective 4.0000000

Root relaxation: objective 3.000000e+00, 26 iterations, 0.00 seconds (0.00 work units)

    Nodes    |    Current Node    |     Objective Bounds      |     Work
 Expl Unexpl |  Obj  Depth IntInf | Incumbent    BestBd   Gap | It/Node Time

H    0     0                       3.0000000    0.00000   100%     -    0s
     0     0          -    0         3.00000    3.00000  0.00%     -    0s

Explored 1 nodes (45 simplex iterations) in 0.00 seconds (0.00 work units)
Thread count was 24 (of 24 available processors)

Solution count 3: 3 4 55.01 

Optimal solution found (tolerance 1.00e-04)
Best objective 3.000000000000e+00, best bound 3.000000000000e+00, gap 0.0000%

Gurobi 10.0.0 (win64, Java) logging started Tue Dec 13 19:17:00 2022

Set parameter Username
Academic license - for non-commercial use only - expires 2023-12-01
Set parameter Presolve to value 1
Set parameter TimeLimit to value 300
Gurobi Optimizer version 10.0.0 build v10.0.0rc2 (win64)

CPU model: AMD Ryzen 9 5900X 12-Core Processor, instruction set [SSE2|AVX|AVX2]
Thread count: 12 physical cores, 24 logical processors, using up to 24 threads

Optimize a model with 455 rows, 252 columns and 968 nonzeros
Model fingerprint: 0x8564d91c
Variable types: 60 continuous, 192 integer (190 binary)
Coefficient statistics:
  Matrix range     [5e-01, 1e+04]
  Objective range  [1e+00, 1e+02]
  Bounds range     [1e+00, 1e+06]
  RHS range        [1e-04, 3e+00]
Presolve removed 415 rows and 221 columns
Presolve time: 0.00s
Presolved: 40 rows, 31 columns, 169 nonzeros
Variable types: 2 continuous, 29 integer (28 binary)
Found heuristic solution: objective 205.0200000
Found heuristic solution: objective 204.0200000
Found heuristic solution: objective 105.0100000

Root relaxation: objective 3.000000e+00, 22 iterations, 0.00 seconds (0.00 work units)

    Nodes    |    Current Node    |     Objective Bounds      |     Work
 Expl Unexpl |  Obj  Depth IntInf | Incumbent    BestBd   Gap | It/Node Time

H    0     0                       3.0000000    0.00000   100%     -    0s
     0     0          -    0         3.00000    3.00000  0.00%     -    0s

Explored 1 nodes (42 simplex iterations) in 0.00 seconds (0.00 work units)
Thread count was 24 (of 24 available processors)

Solution count 4: 3 105.01 204.02 205.02 

Optimal solution found (tolerance 1.00e-04)
Best objective 3.000000000000e+00, best bound 3.000000000000e+00, gap 0.0000%

Gurobi 10.0.0 (win64, Java) logging started Tue Dec 13 19:17:46 2022

Set parameter Username
Academic license - for non-commercial use only - expires 2023-12-01
Set parameter Presolve to value 1
Set parameter TimeLimit to value 300
Gurobi Optimizer version 10.0.0 build v10.0.0rc2 (win64)

CPU model: AMD Ryzen 9 5900X 12-Core Processor, instruction set [SSE2|AVX|AVX2]
Thread count: 12 physical cores, 24 logical processors, using up to 24 threads

Optimize a model with 455 rows, 252 columns and 968 nonzeros
Model fingerprint: 0xccdd33b7
Variable types: 60 continuous, 192 integer (190 binary)
Coefficient statistics:
  Matrix range     [5e-01, 1e+04]
  Objective range  [1e+00, 1e+02]
  Bounds range     [1e+00, 1e+06]
  RHS range        [1e-04, 3e+00]
Presolve removed 415 rows and 221 columns
Presolve time: 0.00s
Presolved: 40 rows, 31 columns, 169 nonzeros
Variable types: 2 continuous, 29 integer (28 binary)
Found heuristic solution: objective 105.0100000

Root relaxation: objective 3.000000e+00, 23 iterations, 0.00 seconds (0.00 work units)

    Nodes    |    Current Node    |     Objective Bounds      |     Work
 Expl Unexpl |  Obj  Depth IntInf | Incumbent    BestBd   Gap | It/Node Time

H    0     0                       3.0000000    0.00000   100%     -    0s
     0     0          -    0         3.00000    3.00000  0.00%     -    0s

Explored 1 nodes (38 simplex iterations) in 0.00 seconds (0.00 work units)
Thread count was 24 (of 24 available processors)

Solution count 2: 3 105.01 

Optimal solution found (tolerance 1.00e-04)
Best objective 3.000000000000e+00, best bound 3.000000000000e+00, gap 0.0000%

Gurobi 10.0.0 (win64, Java) logging started Tue Dec 13 19:22:30 2022

Set parameter Username
Academic license - for non-commercial use only - expires 2023-12-01
Set parameter Presolve to value 1
Set parameter TimeLimit to value 300
Gurobi Optimizer version 10.0.0 build v10.0.0rc2 (win64)

CPU model: AMD Ryzen 9 5900X 12-Core Processor, instruction set [SSE2|AVX|AVX2]
Thread count: 12 physical cores, 24 logical processors, using up to 24 threads

Optimize a model with 455 rows, 252 columns and 968 nonzeros
Model fingerprint: 0xab7cccc0
Variable types: 60 continuous, 192 integer (190 binary)
Coefficient statistics:
  Matrix range     [5e-01, 1e+04]
  Objective range  [1e+00, 1e+02]
  Bounds range     [1e+00, 1e+06]
  RHS range        [1e-04, 3e+00]
Presolve removed 415 rows and 221 columns
Presolve time: 0.00s
Presolved: 40 rows, 31 columns, 161 nonzeros
Variable types: 2 continuous, 29 integer (28 binary)
Found heuristic solution: objective 203.0100000

Root relaxation: objective 3.000000e+00, 10 iterations, 0.00 seconds (0.00 work units)

    Nodes    |    Current Node    |     Objective Bounds      |     Work
 Expl Unexpl |  Obj  Depth IntInf | Incumbent    BestBd   Gap | It/Node Time

*    0     0               0       3.0000000    3.00000  0.00%     -    0s

Explored 1 nodes (10 simplex iterations) in 0.00 seconds (0.00 work units)
Thread count was 24 (of 24 available processors)

Solution count 2: 3 203.01 

Optimal solution found (tolerance 1.00e-04)
Best objective 3.000000000000e+00, best bound 3.000000000000e+00, gap 0.0000%

Gurobi 10.0.0 (win64, Java) logging started Tue Dec 13 19:29:31 2022

Set parameter Username
Academic license - for non-commercial use only - expires 2023-12-01
Set parameter Presolve to value 1
Set parameter TimeLimit to value 300
Gurobi Optimizer version 10.0.0 build v10.0.0rc2 (win64)

CPU model: AMD Ryzen 9 5900X 12-Core Processor, instruction set [SSE2|AVX|AVX2]
Thread count: 12 physical cores, 24 logical processors, using up to 24 threads

Optimize a model with 399 rows, 220 columns and 836 nonzeros
Model fingerprint: 0xc6790877
Variable types: 52 continuous, 168 integer (166 binary)
Coefficient statistics:
  Matrix range     [5e-01, 1e+04]
  Objective range  [1e+00, 1e+02]
  Bounds range     [1e+00, 1e+06]
  RHS range        [1e-04, 1e+00]
Presolve removed 365 rows and 197 columns
Presolve time: 0.00s
Presolved: 34 rows, 23 columns, 131 nonzeros
Variable types: 2 continuous, 21 integer (20 binary)
Found heuristic solution: objective 5.0000000

Root relaxation: objective 3.000000e+00, 10 iterations, 0.00 seconds (0.00 work units)

    Nodes    |    Current Node    |     Objective Bounds      |     Work
 Expl Unexpl |  Obj  Depth IntInf | Incumbent    BestBd   Gap | It/Node Time

     0     0    3.00000    0   10    5.00000    3.00000  40.0%     -    0s
*    0     0               0       4.0000000    4.00000  0.00%     -    0s

Explored 1 nodes (14 simplex iterations) in 0.00 seconds (0.00 work units)
Thread count was 24 (of 24 available processors)

Solution count 2: 4 5 

Optimal solution found (tolerance 1.00e-04)
Best objective 4.000000000000e+00, best bound 4.000000000000e+00, gap 0.0000%

Gurobi 10.0.0 (win64, Java) logging started Wed Dec 14 16:57:55 2022

Set parameter Username
Academic license - for non-commercial use only - expires 2023-12-01
Set parameter Presolve to value 1
Set parameter TimeLimit to value 300
Gurobi Optimizer version 10.0.0 build v10.0.0rc2 (win64)

CPU model: AMD Ryzen 9 5900X 12-Core Processor, instruction set [SSE2|AVX|AVX2]
Thread count: 12 physical cores, 24 logical processors, using up to 24 threads

Optimize a model with 1983 rows, 1312 columns and 5056 nonzeros
Model fingerprint: 0xb6a52b39
Variable types: 208 continuous, 1104 integer (1096 binary)
Coefficient statistics:
  Matrix range     [1e-01, 1e+04]
  Objective range  [1e+00, 2e+02]
  Bounds range     [1e+00, 1e+06]
  RHS range        [1e-04, 1e+00]
Presolve removed 1304 rows and 696 columns
Presolve time: 0.01s
Presolved: 679 rows, 616 columns, 2464 nonzeros
Variable types: 8 continuous, 608 integer (592 binary)
Found heuristic solution: objective 25588.000000

Root relaxation: objective 7.000000e+00, 140 iterations, 0.00 seconds (0.00 work units)

    Nodes    |    Current Node    |     Objective Bounds      |     Work
 Expl Unexpl |  Obj  Depth IntInf | Incumbent    BestBd   Gap | It/Node Time

     0     0    7.00000    0   33 25588.0000    7.00000   100%     -    0s
     0     0  107.00000    0   57 25588.0000  107.00000   100%     -    0s
H    0     0                    25421.000000  107.00000   100%     -    0s
     0     0  107.00000    0   74 25421.0000  107.00000   100%     -    0s
     0     0  107.00000    0  128 25421.0000  107.00000   100%     -    0s
H    0     0                    25227.000000  120.71060   100%     -    0s
     0     0 2241.67455    0   81 25227.0000 2241.67455  91.1%     -    0s
     0     0 7257.12396    0  111 25227.0000 7257.12396  71.2%     -    0s
     0     0 7272.90062    0  116 25227.0000 7272.90062  71.2%     -    0s
     0     0 8668.25019    0  106 25227.0000 8668.25019  65.6%     -    0s
     0     0 8670.09572    0  106 25227.0000 8670.09572  65.6%     -    0s
     0     0 8670.21178    0  106 25227.0000 8670.21178  65.6%     -    0s
H    0     0                    25187.000000 8670.21178  65.6%     -    0s
     0     0 8670.21178    0  107 25187.0000 8670.21178  65.6%     -    0s
     0     0 8670.21178    0  111 25187.0000 8670.21178  65.6%     -    0s
     0     0 8670.21178    0  106 25187.0000 8670.21178  65.6%     -    0s
     0     2 8670.21178    0  106 25187.0000 8670.21178  65.6%     -    0s
*  167   115               9    25141.000000 13319.8379  47.0%  31.3    0s
*  203   124              10    25135.000000 13319.8379  47.0%  28.4    0s

Cutting planes:
  Gomory: 26
  Implied bound: 3
  MIR: 2
  GUB cover: 19
  RLT: 1
  Relax-and-lift: 4

Explored 1736 nodes (30861 simplex iterations) in 0.34 seconds (0.34 work units)
Thread count was 24 (of 24 available processors)

Solution count 6: 25135 25141 25187 ... 25588

Optimal solution found (tolerance 1.00e-04)
Best objective 2.513500000000e+04, best bound 2.513500000000e+04, gap 0.0000%

Gurobi 10.0.0 (win64, Java) logging started Wed Dec 14 17:00:53 2022

Set parameter Username
Academic license - for non-commercial use only - expires 2023-12-01
Set parameter Presolve to value 1
Set parameter TimeLimit to value 300
Gurobi Optimizer version 10.0.0 build v10.0.0rc2 (win64)

CPU model: AMD Ryzen 9 5900X 12-Core Processor, instruction set [SSE2|AVX|AVX2]
Thread count: 12 physical cores, 24 logical processors, using up to 24 threads

Optimize a model with 1983 rows, 1312 columns and 5056 nonzeros
Model fingerprint: 0x27c9c8a3
Variable types: 208 continuous, 1104 integer (1096 binary)
Coefficient statistics:
  Matrix range     [1e-01, 1e+04]
  Objective range  [1e+00, 1e+03]
  Bounds range     [1e+00, 1e+06]
  RHS range        [1e-04, 1e+00]
Presolve removed 1304 rows and 696 columns
Presolve time: 0.01s
Presolved: 679 rows, 616 columns, 2464 nonzeros
Variable types: 8 continuous, 608 integer (592 binary)
Found heuristic solution: objective 309676.00000

Root relaxation: objective 7.000000e+00, 127 iterations, 0.00 seconds (0.00 work units)

    Nodes    |    Current Node    |     Objective Bounds      |     Work
 Expl Unexpl |  Obj  Depth IntInf | Incumbent    BestBd   Gap | It/Node Time

     0     0    7.00000    0   26 309676.000    7.00000   100%     -    0s
     0     0 1007.00000    0   47 309676.000 1007.00000   100%     -    0s
H    0     0                    309609.00000 1007.00000   100%     -    0s
     0     0 1007.00000    0   65 309609.000 1007.00000   100%     -    0s
     0     0 1007.00000    0  128 309609.000 1007.00000   100%     -    0s
H    0     0                    309574.00000 1007.00000   100%     -    0s
     0     0 7791.19334    0   79 309574.000 7791.19334  97.5%     -    0s
H    0     0                    293692.00000 7791.19334  97.3%     -    0s
H    0     0                    256246.00000 7791.19334  97.0%     -    0s
H    0     0                    253752.00000 22765.2518  91.0%     -    0s
H    0     0                    247672.00000 22765.2518  90.8%     -    0s
     0     0 33522.6878    0   66 247672.000 33522.6878  86.5%     -    0s
     0     0 33522.6878    0   67 247672.000 33522.6878  86.5%     -    0s
     0     0 33945.8006    0   74 247672.000 33945.8006  86.3%     -    0s
     0     0 33945.9804    0   73 247672.000 33945.9804  86.3%     -    0s
     0     0 34112.4046    0   67 247672.000 34112.4046  86.2%     -    0s
     0     0 34133.1613    0   78 247672.000 34133.1613  86.2%     -    0s
H    0     0                    247551.00000 34133.1613  86.2%     -    0s
     0     0 34183.1332    0   86 247551.000 34183.1332  86.2%     -    0s
     0     0 34183.1332    0   86 247551.000 34183.1332  86.2%     -    0s
     0     2 34183.1332    0   86 247551.000 34183.1332  86.2%     -    0s
H   34    40                    247511.00000 40343.2872  83.7%  51.7    0s
H   38    40                    247475.00000 40343.2872  83.7%  50.0    0s
H  111   103                    247435.00000 41889.1678  83.1%  33.6    0s
* 1932   661              11    247434.99997 131069.440  47.0%  23.9    0s

Cutting planes:
  Gomory: 23
  Cover: 19
  Implied bound: 3
  MIR: 3
  GUB cover: 23
  Inf proof: 1
  RLT: 1
  Relax-and-lift: 9

Explored 7205 nodes (130757 simplex iterations) in 0.74 seconds (0.82 work units)
Thread count was 24 (of 24 available processors)

Solution count 10: 247435 247435 247475 ... 309574

Optimal solution found (tolerance 1.00e-04)
Best objective 2.474349999732e+05, best bound 2.474278291667e+05, gap 0.0029%

Gurobi 10.0.0 (win64, Java) logging started Wed Dec 14 17:03:13 2022

Set parameter Username
Academic license - for non-commercial use only - expires 2023-12-01
Set parameter Presolve to value 1
Set parameter TimeLimit to value 300
Gurobi Optimizer version 10.0.0 build v10.0.0rc2 (win64)

CPU model: AMD Ryzen 9 5900X 12-Core Processor, instruction set [SSE2|AVX|AVX2]
Thread count: 12 physical cores, 24 logical processors, using up to 24 threads

Optimize a model with 1983 rows, 1312 columns and 5056 nonzeros
Model fingerprint: 0x3b4e2c7d
Variable types: 208 continuous, 1104 integer (1096 binary)
Coefficient statistics:
  Matrix range     [1e-01, 1e+04]
  Objective range  [1e+00, 1e+04]
  Bounds range     [1e+00, 1e+06]
  RHS range        [1e-04, 1e+00]
Presolve removed 1304 rows and 696 columns
Presolve time: 0.01s
Presolved: 679 rows, 616 columns, 2464 nonzeros
Variable types: 8 continuous, 608 integer (592 binary)
Found heuristic solution: objective 2530812.0000

Root relaxation: objective 7.000000e+00, 150 iterations, 0.00 seconds (0.00 work units)

    Nodes    |    Current Node    |     Objective Bounds      |     Work
 Expl Unexpl |  Obj  Depth IntInf | Incumbent    BestBd   Gap | It/Node Time

     0     0    7.00000    0   24 2530812.00    7.00000   100%     -    0s
     0     0 10007.0000    0   44 2530812.00 10007.0000   100%     -    0s
H    0     0                    2470812.0000 10007.0000   100%     -    0s
     0     0 10007.0000    0   58 2470812.00 10007.0000   100%     -    0s
     0     0 10007.0000    0  128 2470812.00 10007.0000   100%     -    0s
H    0     0                    2470587.0000 10007.0000   100%     -    0s
     0     0 71731.1911    0   69 2470587.00 71731.1911  97.1%     -    0s
     0     0 71731.1911    0   62 2470587.00 71731.1911  97.1%     -    0s
     0     0 830303.705    0   84 2470587.00 830303.705  66.4%     -    0s
     0     0 830303.705    0   86 2470587.00 830303.705  66.4%     -    0s
H    0     0                    2470581.0000 830303.705  66.4%     -    0s
     0     0 830303.710    0   87 2470581.00 830303.710  66.4%     -    0s
H    0     0                    2470527.0000 830303.710  66.4%     -    0s
H    0     0                    2470517.0000 830303.710  66.4%     -    0s
H    0     0                    2470511.0000 830303.710  66.4%     -    0s
     0     0 830303.713    0   87 2470511.00 830303.713  66.4%     -    0s
H    0     0                    2470510.9975 830303.713  66.4%     -    0s
     0     0 830303.713    0   87 2470511.00 830303.713  66.4%     -    0s
     0     2 830304.580    0   87 2470511.00 830304.580  66.4%     -    0s
H   31    40                    2470487.0000 830465.520  66.4%  56.8    0s
H   31    40                    2470435.0000 830465.520  66.4%  56.8    0s

Cutting planes:
  Gomory: 25
  Cover: 11
  Implied bound: 3
  MIR: 3
  GUB cover: 18
  Relax-and-lift: 5

Explored 5954 nodes (110086 simplex iterations) in 0.56 seconds (0.63 work units)
Thread count was 24 (of 24 available processors)

Solution count 10: 2.47043e+06 2.47049e+06 2.47051e+06 ... 2.53081e+06

Optimal solution found (tolerance 1.00e-04)
Best objective 2.470435000000e+06, best bound 2.470435000000e+06, gap 0.0000%

Gurobi 10.0.0 (win64, Java) logging started Wed Dec 14 17:04:54 2022

Set parameter Username
Academic license - for non-commercial use only - expires 2023-12-01
Set parameter Presolve to value 1
Set parameter TimeLimit to value 300
Gurobi Optimizer version 10.0.0 build v10.0.0rc2 (win64)

CPU model: AMD Ryzen 9 5900X 12-Core Processor, instruction set [SSE2|AVX|AVX2]
Thread count: 12 physical cores, 24 logical processors, using up to 24 threads

Optimize a model with 1983 rows, 1312 columns and 5056 nonzeros
Model fingerprint: 0x09a6aa41
Variable types: 208 continuous, 1104 integer (1096 binary)
Coefficient statistics:
  Matrix range     [1e-01, 1e+04]
  Objective range  [1e+00, 2e+02]
  Bounds range     [1e+00, 1e+06]
  RHS range        [1e-04, 1e+00]
Presolve removed 1304 rows and 696 columns
Presolve time: 0.01s
Presolved: 679 rows, 616 columns, 2464 nonzeros
Variable types: 8 continuous, 608 integer (592 binary)
Found heuristic solution: objective 31552.000000

Root relaxation: objective 7.000000e+00, 135 iterations, 0.00 seconds (0.00 work units)

    Nodes    |    Current Node    |     Objective Bounds      |     Work
 Expl Unexpl |  Obj  Depth IntInf | Incumbent    BestBd   Gap | It/Node Time

     0     0    7.00000    0   28 31552.0000    7.00000   100%     -    0s
     0     0  107.00000    0   51 31552.0000  107.00000   100%     -    0s
H    0     0                    30781.000000  107.00000   100%     -    0s
     0     0  107.00000    0   62 30781.0000  107.00000   100%     -    0s
     0     0  107.00000    0  128 30781.0000  107.00000   100%     -    0s
H    0     0                    25372.000000  107.00000   100%     -    0s
     0     0 4540.11600    0  109 25372.0000 4540.11600  82.1%     -    0s
     0     0 7284.41127    0   87 25372.0000 7284.41127  71.3%     -    0s
H    0     0                    25205.000000 7284.41127  71.1%     -    0s
     0     0 7284.41127    0   88 25205.0000 7284.41127  71.1%     -    0s
     0     0 7570.78425    0  109 25205.0000 7570.78425  70.0%     -    0s
     0     0 7571.14389    0  109 25205.0000 7571.14389  70.0%     -    0s
     0     0 7579.62719    0  110 25205.0000 7579.62719  69.9%     -    0s
     0     0 7579.62719    0  110 25205.0000 7579.62719  69.9%     -    0s
     0     2 7579.62719    0  107 25205.0000 7579.62719  69.9%     -    0s
*   80    66               9    25187.000000 13323.9077  47.1%  62.9    0s
H   87    72                    25135.000000 13323.9077  47.0%  60.2    0s

Cutting planes:
  Gomory: 27
  Cover: 4
  Implied bound: 1
  MIR: 6
  GUB cover: 13
  Relax-and-lift: 1

Explored 1284 nodes (32637 simplex iterations) in 0.39 seconds (0.43 work units)
Thread count was 24 (of 24 available processors)

Solution count 6: 25135 25187 25205 ... 31552

Optimal solution found (tolerance 1.00e-04)
Best objective 2.513500000000e+04, best bound 2.513500000000e+04, gap 0.0000%
